nNurses = 67;
nHours = 35;
minHours = 10;
maxHours = 19;
maxConsec = 8;
maxPresence = 34;
demand = [33, 36, 37, 36, 31, 31, 26, 25, 29, 31, 31, 27, 23, 25, 29, 31, 27, 23, 22, 18, 16, 20, 21, 17, 17, 17, 14, 13, 18, 16, 18, 21, 18, 19, 23];
